Reading model...
...model read.
creating competitive generators file...
...competitive generators recorded.
Loading data...
.. day-ahead data read.
Compiling instance...
...instance created.
Creating Offer Mitigation (model will solve as dispatch if TRUE)...
Solving...

Welcome to IBM(R) ILOG(R) CPLEX(R) Interactive Optimizer 12.10.0.0
  with Simplex, Mixed Integer & Barrier Optimizers
5725-A06 5725-A29 5724-Y48 5724-Y49 5724-Y54 5724-Y55 5655-Y21
Copyright IBM Corp. 1988, 2019.  All Rights Reserved.

Type 'help' for a list of available commands.
Type 'help' followed by a command name for more
information on commands.

CPLEX> Logfile 'cplex.log' closed.
Logfile 'C:\Users\wenmi\Desktop\competitiveMPEC\logs\tmpf5t68oyn.cplex.log' open.
CPLEX> New value for parallel optimization mode: -1
CPLEX> New value for mixed integer optimality gap tolerance: 0.01
CPLEX> New value for deterministic time limit in ticks: 30000
CPLEX> Problem 'C:\Users\wenmi\Desktop\competitiveMPEC\logs\tmpy603ggkz.pyomo.lp' read.
Read time = 0.03 sec. (2.91 ticks)
CPLEX> Problem name         : C:\Users\wenmi\Desktop\competitiveMPEC\logs\tmpy603ggkz.pyomo.lp
Objective sense      : Minimize
Variables            :   25837  [Nneg: 1,  Box: 21420,  Free: 4416]
Objective nonzeros   :    2496
Linear constraints   :   27345  [Less: 13909,  Greater: 4416,  Equal: 9020]
  Nonzeros           :   86221
  RHS nonzeros       :   12163

Variables            : Min LB: -5000.000        Max UB: 1000000.       
Objective nonzeros   : Min   : 15.73158         Max   : 124.0997       
Linear constraints   :
  Nonzeros           : Min   : 0.9219544        Max   : 3000.000       
  RHS nonzeros       : Min   : 0.1000000        Max   : 5000.000       
CPLEX> Version identifier: 12.10.0.0 | 2019-11-26 | 843d4de2ae
CPXPARAM_Parallel                                -1
CPXPARAM_DetTimeLimit                            30000
CPXPARAM_MIP_Tolerances_MIPGap                   0.01
Parallel mode: opportunistic, using up to 16 threads for concurrent optimization:
 * Starting dual Simplex on 1 thread...
 * Starting Barrier on 14 threads...
 * Starting primal Simplex on 1 thread...
Tried aggregator 1 time.
LP Presolve eliminated 21306 rows and 15447 columns.
Aggregator did 776 substitutions.
Reduced LP has 5263 rows, 9614 columns, and 30008 nonzeros.
Presolve time = 0.03 sec. (28.90 ticks)
Symmetry aggregator did 5549 additional substitutions.
Initializing dual steep norms . . .

Iteration log . . .
Iteration:     1   Dual objective     =             0.000000
Perturbation started.
Iteration:   101   Dual objective     =             0.000000
Iteration:   335   Dual objective     =            45.526260
Iteration:   552   Dual objective     =            52.294560
Iteration:   763   Dual objective     =         55853.028536
Iteration:   927   Dual objective     =        162469.147927
Iteration:  1118   Dual objective     =        181184.282281
Removing perturbation.

Dual crossover.
  Dual:  Fixing 3 variables.
        2 DMoves:  Infeasibility  1.77635684e-14  Objective  1.81309801e+05
        0 DMoves:  Infeasibility  2.44361965e-15  Objective  1.81309801e+05
  Dual:  Pushed 0, exchanged 3.
  Primal:  Fixing 4 variables.
        3 PMoves:  Infeasibility  3.66708264e-09  Objective  1.81309801e+05
        0 PMoves:  Infeasibility  3.66708264e-09  Objective  1.81309801e+05
  Primal:  Pushed 4, exchanged 0.

Dual simplex solved model.


Dual simplex - Optimal:  Objective =  1.8130980118e+05
Solution time =    0.09 sec.  Iterations = 1277 (0)
Deterministic time = 72.99 ticks  (776.52 ticks/sec)

CPLEX> Solution written to file 'C:\Users\wenmi\Desktop\competitiveMPEC\logs\tmpwjkuek3u.cplex.sol'.
CPLEX> Exporting results... 
...storage offer mitigation file created
Converting model to MPEC...
...converted
NOTE: initial MIP solve with only storage competitive to get feasible solution
Solving...

Welcome to IBM(R) ILOG(R) CPLEX(R) Interactive Optimizer 12.10.0.0
  with Simplex, Mixed Integer & Barrier Optimizers
5725-A06 5725-A29 5724-Y48 5724-Y49 5724-Y54 5724-Y55 5655-Y21
Copyright IBM Corp. 1988, 2019.  All Rights Reserved.

Type 'help' for a list of available commands.
Type 'help' followed by a command name for more
information on commands.

CPLEX> Logfile 'cplex.log' closed.
Logfile 'C:\Users\wenmi\Desktop\competitiveMPEC\logs\tmp5czrrpja.cplex.log' open.
CPLEX> New value for parallel optimization mode: -1
CPLEX> New value for mixed integer optimality gap tolerance: 0.01
CPLEX> New value for deterministic time limit in ticks: 30000
CPLEX> Problem 'C:\Users\wenmi\Desktop\competitiveMPEC\logs\tmpikk55gv8.pyomo.lp' read.
Read time = 0.14 sec. (13.53 ticks)
CPLEX> Problem name         : C:\Users\wenmi\Desktop\competitiveMPEC\logs\tmpikk55gv8.pyomo.lp
Objective sense      : Maximize
Variables            :   53320  [Nneg: 1,  Box: 21805,  Free: 4416,
                                 Binary: 27098]
Objective nonzeros   :    8945
Linear constraints   :  122188  [Less: 41007,  Greater: 58612,  Equal: 22569]
  Nonzeros           :  287271
  RHS nonzeros       :   66971

Variables            : Min LB: -5000.000        Max UB: 1000000.       
Objective nonzeros   : Min   : 0.1000000        Max   : 795.1000       
Linear constraints   :
  Nonzeros           : Min   : 0.1000000        Max   : 1000000.       
  RHS nonzeros       : Min   : 0.1000000        Max   : 1000000.       
CPLEX> Version identifier: 12.10.0.0 | 2019-11-26 | 843d4de2ae
CPXPARAM_Parallel                                -1
CPXPARAM_DetTimeLimit                            30000
CPXPARAM_MIP_Tolerances_MIPGap                   0.01
Tried aggregator 3 times.
MIP Presolve eliminated 88348 rows and 19153 columns.
MIP Presolve added 3337 rows and 0 columns.
MIP Presolve modified 24466 coefficients.
Aggregator did 12836 substitutions.
Reduced MIP has 24341 rows, 20749 columns, and 67028 nonzeros.
Reduced MIP has 8198 binaries, 0 generals, 0 SOSs, and 0 indicators.
Presolve time = 0.16 sec. (163.14 ticks)
Probing fixed 402 vars, tightened 6222 bounds.
Probing time = 0.03 sec. (18.48 ticks)
Tried aggregator 2 times.
Detecting symmetries...
MIP Presolve eliminated 897 rows and 806 columns.
MIP Presolve modified 3031 coefficients.
Aggregator did 46 substitutions.
Reduced MIP has 23398 rows, 19897 columns, and 64290 nonzeros.
Reduced MIP has 7795 binaries, 0 generals, 0 SOSs, and 0 indicators.
Presolve time = 0.05 sec. (87.74 ticks)
Probing fixed 0 vars, tightened 249 bounds.
Probing time = 0.06 sec. (22.84 ticks)
Clique table members: 41559.
MIP emphasis: balance optimality and feasibility.
MIP search method: dynamic search.
Parallel mode: opportunistic, using up to 16 threads.
Root relaxation solution time = 0.24 sec. (575.21 ticks)

        Nodes                                         Cuts/
   Node  Left     Objective  IInf  Best Integer    Best Bound    ItCnt     Gap

      0     0     3937.9553    90                   3937.9553     5380         
*     0+    0                         3876.9334     3937.9553             1.57%
      0     0     3937.9553    90     3876.9334      Fract: 1     5412    1.57%
*     0+    0                         3932.0537     3937.9553             0.15%

Gomory fractional cuts applied:  1

Root node processing (before b&c):
  Real time             =    1.09 sec. (1335.34 ticks)
Parallel b&c, 16 threads:
  Real time             =    0.00 sec. (0.00 ticks)
  Sync time (average)   =    0.00 sec.
  Wait time (average)   =    0.00 sec.
                          ------------
Total (root+branch&cut) =    1.09 sec. (1335.34 ticks)

Solution pool: 2 solutions saved.

MIP - Integer optimal, tolerance (0.01/1e-06):  Objective =  3.9320537006e+03
Current MIP best bound =  3.9379553230e+03 (gap = 5.90162, 0.15%)
Solution time =    1.09 sec.  Iterations = 5412  Nodes = 0 (1)
Deterministic time = 1335.49 ticks  (1220.74 ticks/sec)

CPLEX> Incumbent solution written to file 'C:\Users\wenmi\Desktop\competitiveMPEC\logs\tmpyp5s4j_q.cplex.sol'.
CPLEX> NOTE: no warmstart specified for MIP iteration, default behavior is true
NOTE: resolving with all competitive generators using storage-only solution to warmstart
Solving...

Welcome to IBM(R) ILOG(R) CPLEX(R) Interactive Optimizer 12.10.0.0
  with Simplex, Mixed Integer & Barrier Optimizers
5725-A06 5725-A29 5724-Y48 5724-Y49 5724-Y54 5724-Y55 5655-Y21
Copyright IBM Corp. 1988, 2019.  All Rights Reserved.

Type 'help' for a list of available commands.
Type 'help' followed by a command name for more
information on commands.

CPLEX> Logfile 'cplex.log' closed.
Logfile 'C:\Users\wenmi\Desktop\competitiveMPEC\logs\tmpbcni_yms.cplex.log' open.
CPLEX> New value for parallel optimization mode: -1
CPLEX> New value for mixed integer optimality gap tolerance: 0.01
CPLEX> New value for deterministic time limit in ticks: 30000
CPLEX> Problem 'C:\Users\wenmi\Desktop\competitiveMPEC\logs\tmpj5s35wqv.pyomo.lp' read.
Read time = 0.16 sec. (13.55 ticks)
CPLEX> MIP start file 'C:\Users\wenmi\Desktop\competitiveMPEC\logs\tmpy2kd0nra.cplex.mst' read.
CPLEX> Problem name         : C:\Users\wenmi\Desktop\competitiveMPEC\logs\tmpj5s35wqv.pyomo.lp
Objective sense      : Maximize
Variables            :   54040  [Nneg: 1,  Box: 22525,  Free: 4416,
                                 Binary: 27098]
Objective nonzeros   :    9641
Linear constraints   :  122188  [Less: 41007,  Greater: 58612,  Equal: 22569]
  Nonzeros           :  287271
  RHS nonzeros       :   66971

Variables            : Min LB: -5000.000        Max UB: 1000000.       
Objective nonzeros   : Min   : 0.1000000        Max   : 795.1000       
Linear constraints   :
  Nonzeros           : Min   : 0.1000000        Max   : 1000000.       
  RHS nonzeros       : Min   : 0.1000000        Max   : 1000000.       
CPLEX> Version identifier: 12.10.0.0 | 2019-11-26 | 843d4de2ae
CPXPARAM_Parallel                                -1
CPXPARAM_DetTimeLimit                            30000
CPXPARAM_MIP_Tolerances_MIPGap                   0.01
1 of 1 MIP starts provided solutions.
MIP start 'm1' defined initial solution with objective 46699.1083.
Tried aggregator 3 times.
MIP Presolve eliminated 88348 rows and 19873 columns.
MIP Presolve added 3337 rows and 0 columns.
MIP Presolve modified 24466 coefficients.
Aggregator did 12836 substitutions.
Reduced MIP has 24341 rows, 20749 columns, and 67028 nonzeros.
Reduced MIP has 8198 binaries, 0 generals, 0 SOSs, and 0 indicators.
Presolve time = 0.16 sec. (163.49 ticks)
Probing fixed 402 vars, tightened 6222 bounds.
Probing time = 0.03 sec. (18.48 ticks)
Tried aggregator 2 times.
Detecting symmetries...
MIP Presolve eliminated 897 rows and 806 columns.
MIP Presolve modified 3031 coefficients.
Aggregator did 46 substitutions.
Reduced MIP has 23398 rows, 19897 columns, and 64290 nonzeros.
Reduced MIP has 7795 binaries, 0 generals, 0 SOSs, and 0 indicators.
Presolve time = 0.08 sec. (87.74 ticks)
Probing fixed 0 vars, tightened 249 bounds.
Probing time = 0.06 sec. (22.84 ticks)
Clique table members: 41559.
MIP emphasis: balance optimality and feasibility.
MIP search method: dynamic search.
Parallel mode: opportunistic, using up to 16 threads.
Root relaxation solution time = 0.23 sec. (604.99 ticks)

        Nodes                                         Cuts/
   Node  Left     Objective  IInf  Best Integer    Best Bound    ItCnt     Gap

*     0+    0                        46699.1083   7.33499e+07              --- 
      0     0    75982.4627   173    46699.1083    75982.4627     5694   62.71%
      0     0    75116.8504   173    46699.1083     Cuts: 310     5845   60.85%
      0     0    75069.1707   173    46699.1083     Cuts: 143     5892   60.75%
      0     0    75020.6326   173    46699.1083      Cuts: 94     5918   60.65%
*     0+    0                        46699.1085    75020.6326            60.65%
      0     0    75020.6326   173    46699.1085       Cuts: 6     5923   60.65%
      0     0    75020.6326   173    46699.1085   Flowcuts: 1     5924   60.65%
      0     0    75020.2838   173    46699.1085       Cuts: 5     5929   60.65%
      0     2    75020.2838    44    46699.1085    75020.2838     5929   60.65%
Elapsed time = 2.80 sec. (2451.49 ticks, tree = 0.02 MB, solutions = 2)
    248    50    67657.2341    30    46699.1085    74478.5857     6361   59.49%
    558   296        cutoff          46699.1085    74478.5857     8626   59.49%
    957   378    52449.3061    15    46699.1085    74478.5857     9015   59.49%
   1274   780    46984.1835    11    46699.1085    74333.3028    11742   59.17%
   1659   892    60330.4994    24    46699.1085    74288.3280    12654   59.08%
   2091  1095    47368.9962    11    46699.1085    73712.9718    14662   57.85%
   2455  1226    66963.8241    28    46699.1085    71490.3850    15601   53.09%
*  2720+ 1437                        49625.0446    71407.7508            43.89%
   2768  1811    58991.5415    20    49625.0446    70915.4690    19906   42.90%
   3065  1916    59947.9678    19    49625.0446    70797.6044    23333   42.67%
   4488  2534    55171.7190    24    49685.1781    70548.1178    29163   41.99%
Elapsed time = 14.66 sec. (5556.45 ticks, tree = 18.45 MB, solutions = 5)

Performing restart 1

Repeating presolve.
Tried aggregator 4 times.
MIP Presolve eliminated 974 rows and 838 columns.
MIP Presolve modified 43180 coefficients.
Aggregator did 255 substitutions.
Reduced MIP has 22169 rows, 18804 columns, and 60384 nonzeros.
Reduced MIP has 7424 binaries, 0 generals, 0 SOSs, and 0 indicators.
Presolve time = 0.13 sec. (129.12 ticks)
Tried aggregator 3 times.
MIP Presolve eliminated 463 rows and 384 columns.
MIP Presolve modified 12465 coefficients.
Aggregator did 18 substitutions.
Reduced MIP has 21688 rows, 18402 columns, and 59099 nonzeros.
Reduced MIP has 7232 binaries, 0 generals, 0 SOSs, and 0 indicators.
Presolve time = 0.05 sec. (55.52 ticks)
Tried aggregator 2 times.
MIP Presolve modified 9873 coefficients.
Aggregator did 1 substitutions.
Reduced MIP has 21687 rows, 18401 columns, and 59098 nonzeros.
Reduced MIP has 7232 binaries, 0 generals, 0 SOSs, and 0 indicators.
Presolve time = 0.05 sec. (54.84 ticks)
Represolve time = 0.66 sec. (551.81 ticks)
   4787     0    75009.4381   122    49685.1781     Cuts: 295    41540   41.99%
   4787     0    75009.2223   122    49685.1781      Cuts: 46    41583   41.99%
   4787     0    75009.2223   122    49685.1781      Cuts: 51    41622   41.99%
   4787     0    75009.2223   122    49685.1781      Cuts: 58    41655   41.99%
   4787     0    75009.2223   122    49685.1781     Cuts: 107    41735   41.99%
   4787     0    75009.2223   122    49685.1781      Cuts: 66    41775   41.99%
   4787     0    74869.5057   122    49685.1781      Cuts: 33    41804   36.71%
   4787     7    46888.3505    83    49685.1781    67924.5808    42176   36.71%
   5213    39    54247.3219    22    49685.1781    67924.5808    42590   36.71%
   6125   227    50058.4774    14    49685.1781    67924.5808    44587   36.71%
   7249   800    50012.8266    25    49685.1781    63807.9523    50766   28.42%
*  7270  1332      integral     0    50761.0429    63807.9523    56396   25.70%
   8908  1605    51020.0848    18    50761.0429    58996.1555    66555   16.22%
   9903  1655    52599.5228    37    50761.0429    57242.4994    68308   12.77%
  10693  1944    51199.1983    21    50761.0429    56761.7582    73867   11.82%
  12183  2945    54917.4728    27    50761.0429    56170.8084    89136   10.66%
  13863  3404    51151.8500    20    50761.0429    55296.1181    96708    8.93%
Elapsed time = 45.31 sec. (17308.35 ticks, tree = 23.81 MB, solutions = 7)
  15517  3666    52186.0524    37    50761.0429    53123.6609   115153    4.65%
  17338  3642    51073.7358    25    50761.0429    52510.8883   117625    3.45%
  18813  4723        cutoff          50761.0429    52510.8883   137787    3.45%
  19422  4669        cutoff          50761.0429    51926.2615   144090    2.30%
  20257  4628        cutoff          50761.0429    51765.1309   145404    1.98%
  21698  4531    50974.7051    18    50761.0429    51653.4112   151862    1.76%
  23493  4667    50770.5432     2    50761.0429    51522.5792   162006    1.50%
  25438  4631    51073.7358    25    50761.0429    51481.4395   161612    1.42%
  26715  5772    50770.5432     3    50761.0429    51328.6006   173779    1.12%
  27171  6176    50770.5432     3    50761.0429    51328.6006   178791    1.12%
Elapsed time = 72.50 sec. (26853.13 ticks, tree = 48.78 MB, solutions = 7)
  27270  6591    50770.5432     4    50761.0429    51316.6430   183653    1.09%

Cover cuts applied:  5
Implied bound cuts applied:  9
Flow cuts applied:  32
Mixed integer rounding cuts applied:  12
Gomory fractional cuts applied:  11

Root node processing (before b&c):
  Real time             =    2.41 sec. (2402.41 ticks)
Parallel b&c, 16 threads:
  Real time             =   70.17 sec. (26291.95 ticks)
  Sync time (average)   =    0.98 sec.
  Wait time (average)   =    0.04 sec.
                          ------------
Total (root+branch&cut) =   72.58 sec. (28694.36 ticks)

Solution pool: 7 solutions saved.

MIP - Integer optimal, tolerance (0.01/1e-06):  Objective =  5.0761042914e+04
Current MIP best bound =  5.1264528339e+04 (gap = 503.485, 0.99%)
Solution time =   72.58 sec.  Iterations = 185036  Nodes = 27294 (6587)
Deterministic time = 28694.52 ticks  (395.36 ticks/sec)

CPLEX> Incumbent solution written to file 'C:\Users\wenmi\Desktop\competitiveMPEC\logs\tmphdb7kqv9.cplex.sol'.
CPLEX> Exporting results... 
